c Created with the Wolfram Language : www.wolfram.com
c 
p edge 100 758
e 2 3
e 2 5
e 3 5
e 3 6
e 7 8
e 2 9
e 3 9
e 1 10
e 2 10
e 3 10
e 9 10
e 2 11
e 6 11
e 9 11
e 8 12
e 9 12
e 3 13
e 11 13
e 4 15
e 10 15
e 11 15
e 1 16
e 2 16
e 5 16
e 9 16
e 14 16
e 1 17
e 9 17
e 13 17
e 5 19
e 6 19
e 8 19
e 9 19
e 11 19
e 18 19
e 6 20
e 10 20
e 11 20
e 14 20
e 7 21
e 4 22
e 5 22
e 3 23
e 5 23
e 6 23
e 9 23
e 11 23
e 12 23
e 14 23
e 19 23
e 2 24
e 5 24
e 15 24
e 20 24
e 23 24
e 3 25
e 10 25
e 13 25
e 18 25
e 21 25
e 5 26
e 14 26
e 19 26
e 3 27
e 5 27
e 11 27
e 12 27
e 26 27
e 10 28
e 21 28
e 23 28
e 25 28
e 26 28
e 16 29
e 17 29
e 20 29
e 21 29
e 24 29
e 28 29
e 21 30
e 27 30
e 14 31
e 20 31
e 21 31
e 29 31
e 7 32
e 9 32
e 10 32
e 23 32
e 25 32
e 31 32
e 1 33
e 3 33
e 4 33
e 5 33
e 6 33
e 16 33
e 25 33
e 27 33
e 1 34
e 3 34
e 19 34
e 32 34
e 11 35
e 23 35
e 32 35
e 34 35
e 4 36
e 5 36
e 11 36
e 12 36
e 16 36
e 20 36
e 21 36
e 32 36
e 2 37
e 4 37
e 14 37
e 15 37
e 17 37
e 21 37
e 32 37
e 2 38
e 3 38
e 16 38
e 30 38
e 31 38
e 33 38
e 34 38
e 4 39
e 7 39
e 11 39
e 17 39
e 24 39
e 1 40
e 8 40
e 13 40
e 16 40
e 23 40
e 33 40
e 7 41
e 12 41
e 18 41
e 31 41
e 40 41
e 5 42
e 14 42
e 26 42
e 32 42
e 33 42
e 39 42
e 16 43
e 25 43
e 27 43
e 28 43
e 32 43
e 38 43
e 39 43
e 2 44
e 19 44
e 27 44
e 31 44
e 32 44
e 43 44
e 7 45
e 12 45
e 17 45
e 25 45
e 30 45
e 38 45
e 41 45
e 9 46
e 11 46
e 14 46
e 23 46
e 36 46
e 37 46
e 42 46
e 17 47
e 18 47
e 33 47
e 44 47
e 45 47
e 4 48
e 8 48
e 13 48
e 17 48
e 19 48
e 23 48
e 33 48
e 34 48
e 39 48
e 40 48
e 31 49
e 34 49
e 41 49
e 1 50
e 4 50
e 7 50
e 8 50
e 14 50
e 20 50
e 32 50
e 44 50
e 45 50
e 2 51
e 4 51
e 11 51
e 12 51
e 17 51
e 22 51
e 28 51
e 41 51
e 43 51
e 45 51
e 15 52
e 17 52
e 18 52
e 25 52
e 27 52
e 31 52
e 39 52
e 44 52
e 6 53
e 8 53
e 10 53
e 13 53
e 14 53
e 25 53
e 27 53
e 31 53
e 52 53
e 6 54
e 13 54
e 15 54
e 16 54
e 26 54
e 45 54
e 48 54
e 1 55
e 2 55
e 13 55
e 19 55
e 27 55
e 33 55
e 36 55
e 49 55
e 7 56
e 16 56
e 18 56
e 20 56
e 25 56
e 39 56
e 45 56
e 50 56
e 52 56
e 5 57
e 8 57
e 10 57
e 14 57
e 19 57
e 22 57
e 24 57
e 30 57
e 40 57
e 44 57
e 46 57
e 23 58
e 29 58
e 32 58
e 34 58
e 44 58
e 45 58
e 46 58
e 52 58
e 53 58
e 17 59
e 20 59
e 23 59
e 28 59
e 30 59
e 33 59
e 34 59
e 1 60
e 4 60
e 14 60
e 26 60
e 27 60
e 29 60
e 43 60
e 45 60
e 52 60
e 57 60
e 8 61
e 10 61
e 17 61
e 20 61
e 28 61
e 29 61
e 31 61
e 34 61
e 35 61
e 59 61
e 60 61
e 4 62
e 7 62
e 8 62
e 22 62
e 26 62
e 29 62
e 31 62
e 43 62
e 45 62
e 61 62
e 1 63
e 4 63
e 7 63
e 10 63
e 12 63
e 15 63
e 17 63
e 18 63
e 19 63
e 22 63
e 33 63
e 37 63
e 38 63
e 39 63
e 53 63
e 57 63
e 3 64
e 5 64
e 9 64
e 15 64
e 19 64
e 23 64
e 29 64
e 37 64
e 38 64
e 61 64
e 63 64
e 4 65
e 6 65
e 13 65
e 24 65
e 36 65
e 42 65
e 44 65
e 45 65
e 2 66
e 4 66
e 6 66
e 11 66
e 18 66
e 21 66
e 32 66
e 35 66
e 39 66
e 49 66
e 6 67
e 16 67
e 19 67
e 32 67
e 33 67
e 37 67
e 38 67
e 40 67
e 48 67
e 49 67
e 50 67
e 51 67
e 58 67
e 1 68
e 2 68
e 4 68
e 21 68
e 29 68
e 31 68
e 49 68
e 53 68
e 59 68
e 67 68
e 7 69
e 19 69
e 24 69
e 30 69
e 37 69
e 41 69
e 47 69
e 51 69
e 52 69
e 1 70
e 22 70
e 25 70
e 26 70
e 27 70
e 35 70
e 44 70
e 45 70
e 61 70
e 65 70
e 10 71
e 11 71
e 17 71
e 24 71
e 26 71
e 36 71
e 42 71
e 1 72
e 14 72
e 19 72
e 22 72
e 26 72
e 28 72
e 35 72
e 40 72
e 41 72
e 43 72
e 58 72
e 6 73
e 8 73
e 14 73
e 17 73
e 24 73
e 33 73
e 34 73
e 39 73
e 41 73
e 45 73
e 47 73
e 48 73
e 49 73
e 62 73
e 1 74
e 7 74
e 14 74
e 18 74
e 19 74
e 32 74
e 53 74
e 68 74
e 26 75
e 27 75
e 29 75
e 33 75
e 50 75
e 52 75
e 53 75
e 60 75
e 14 76
e 19 76
e 32 76
e 36 76
e 41 76
e 42 76
e 47 76
e 52 76
e 55 76
e 60 76
e 62 76
e 64 76
e 65 76
e 66 76
e 71 76
e 73 76
e 74 76
e 11 77
e 28 77
e 31 77
e 38 77
e 49 77
e 64 77
e 65 77
e 66 77
e 73 77
e 75 77
e 27 78
e 31 78
e 40 78
e 42 78
e 50 78
e 5 79
e 7 79
e 9 79
e 21 79
e 39 79
e 45 79
e 47 79
e 50 79
e 51 79
e 54 79
e 55 79
e 60 79
e 62 79
e 70 79
e 71 79
e 77 79
e 3 80
e 6 80
e 21 80
e 26 80
e 27 80
e 32 80
e 35 80
e 37 80
e 42 80
e 49 80
e 54 80
e 58 80
e 60 80
e 70 80
e 76 80
e 5 81
e 14 81
e 22 81
e 32 81
e 40 81
e 42 81
e 55 81
e 66 81
e 70 81
e 71 81
e 73 81
e 15 82
e 19 82
e 21 82
e 23 82
e 34 82
e 56 82
e 58 82
e 65 82
e 72 82
e 76 82
e 25 83
e 31 83
e 32 83
e 36 83
e 39 83
e 46 83
e 70 83
e 76 83
e 78 83
e 17 84
e 19 84
e 25 84
e 45 84
e 50 84
e 63 84
e 83 84
e 4 85
e 24 85
e 29 85
e 30 85
e 31 85
e 33 85
e 35 85
e 36 85
e 50 85
e 53 85
e 58 85
e 74 85
e 77 85
e 11 86
e 14 86
e 20 86
e 21 86
e 27 86
e 28 86
e 54 86
e 61 86
e 66 86
e 74 86
e 20 87
e 23 87
e 27 87
e 37 87
e 38 87
e 41 87
e 53 87
e 56 87
e 59 87
e 61 87
e 69 87
e 74 87
e 84 87
e 23 88
e 29 88
e 34 88
e 37 88
e 44 88
e 52 88
e 54 88
e 58 88
e 59 88
e 71 88
e 75 88
e 79 88
e 80 88
e 10 89
e 20 89
e 30 89
e 43 89
e 44 89
e 56 89
e 64 89
e 65 89
e 78 89
e 81 89
e 86 89
e 88 89
e 13 90
e 16 90
e 18 90
e 25 90
e 47 90
e 52 90
e 55 90
e 73 90
e 76 90
e 78 90
e 79 90
e 81 90
e 84 90
e 8 91
e 61 91
e 64 91
e 66 91
e 73 91
e 76 91
e 77 91
e 81 91
e 83 91
e 4 92
e 11 92
e 19 92
e 25 92
e 32 92
e 35 92
e 60 92
e 74 92
e 78 92
e 79 92
e 90 92
e 8 93
e 14 93
e 22 93
e 25 93
e 31 93
e 32 93
e 39 93
e 40 93
e 41 93
e 49 93
e 52 93
e 58 93
e 66 93
e 71 93
e 75 93
e 89 93
e 9 94
e 23 94
e 38 94
e 39 94
e 41 94
e 43 94
e 54 94
e 55 94
e 60 94
e 73 94
e 82 94
e 7 95
e 12 95
e 25 95
e 28 95
e 29 95
e 67 95
e 69 95
e 71 95
e 79 95
e 85 95
e 88 95
e 1 96
e 10 96
e 15 96
e 22 96
e 48 96
e 50 96
e 51 96
e 63 96
e 72 96
e 89 96
e 91 96
e 1 97
e 6 97
e 10 97
e 13 97
e 22 97
e 30 97
e 35 97
e 39 97
e 43 97
e 55 97
e 56 97
e 68 97
e 69 97
e 71 97
e 82 97
e 84 97
e 85 97
e 95 97
e 5 98
e 13 98
e 18 98
e 22 98
e 24 98
e 37 98
e 38 98
e 40 98
e 50 98
e 56 98
e 63 98
e 64 98
e 72 98
e 83 98
e 86 98
e 88 98
e 6 99
e 11 99
e 27 99
e 28 99
e 29 99
e 31 99
e 37 99
e 41 99
e 42 99
e 45 99
e 52 99
e 59 99
e 60 99
e 76 99
e 87 99
e 88 99
e 92 99
e 94 99
e 1 100
e 5 100
e 25 100
e 31 100
e 34 100
e 36 100
e 37 100
e 55 100
e 59 100
e 72 100
e 80 100
e 82 100
e 88 100
e 91 100
